c "348951.clq"
p edge 139 540
e 1 5
e 1 6
e 1 7
e 1 12
e 1 15
e 1 29
e 1 44
e 1 58
e 1 61
e 1 70
e 1 75
e 1 82
e 1 119
e 1 134
e 1 135
e 2 5
e 2 6
e 2 7
e 2 11
e 2 12
e 2 29
e 2 30
e 2 32
e 2 35
e 2 38
e 2 48
e 2 49
e 2 52
e 2 58
e 2 67
e 2 87
e 2 104
e 2 116
e 2 124
e 2 128
e 2 133
e 3 5
e 3 6
e 3 7
e 3 8
e 3 9
e 3 10
e 3 22
e 3 38
e 3 39
e 3 46
e 3 57
e 3 67
e 3 85
e 3 88
e 3 100
e 3 127
e 3 128
e 4 5
e 4 9
e 4 13
e 4 18
e 4 23
e 4 33
e 4 35
e 4 39
e 4 48
e 4 54
e 4 60
e 4 63
e 4 97
e 4 123
e 5 6
e 5 8
e 5 9
e 5 10
e 5 11
e 5 15
e 5 17
e 5 21
e 5 22
e 5 23
e 5 26
e 5 28
e 5 30
e 5 31
e 5 43
e 5 52
e 5 53
e 5 55
e 5 62
e 5 65
e 5 66
e 5 71
e 5 73
e 5 77
e 5 78
e 5 86
e 5 134
e 6 7
e 6 8
e 6 15
e 6 20
e 6 30
e 6 32
e 6 36
e 6 44
e 6 55
e 6 59
e 6 83
e 6 84
e 6 85
e 6 108
e 6 123
e 7 8
e 7 9
e 7 10
e 7 11
e 7 13
e 7 14
e 7 16
e 7 17
e 7 18
e 7 19
e 7 28
e 7 31
e 7 37
e 7 48
e 7 50
e 7 52
e 7 57
e 7 70
e 7 71
e 7 89
e 7 94
e 7 123
e 7 127
e 7 132
e 7 133
e 7 137
e 8 10
e 8 11
e 8 12
e 8 13
e 8 14
e 8 15
e 8 18
e 8 20
e 8 21
e 8 23
e 8 26
e 8 34
e 8 41
e 8 43
e 8 46
e 8 47
e 8 51
e 8 53
e 8 60
e 8 75
e 8 76
e 8 82
e 8 91
e 8 104
e 8 105
e 8 110
e 8 116
e 8 117
e 8 118
e 8 125
e 8 126
e 8 130
e 9 12
e 9 13
e 9 14
e 9 17
e 9 20
e 9 24
e 9 27
e 9 31
e 9 33
e 9 40
e 9 43
e 9 50
e 9 51
e 9 55
e 9 56
e 9 65
e 9 75
e 9 80
e 9 90
e 9 93
e 9 95
e 9 109
e 9 112
e 10 16
e 10 27
e 10 29
e 10 33
e 10 61
e 10 69
e 10 74
e 10 86
e 10 91
e 10 107
e 10 110
e 10 117
e 10 129
e 11 14
e 11 25
e 11 36
e 11 45
e 11 59
e 11 61
e 11 65
e 11 76
e 11 83
e 11 105
e 12 19
e 12 22
e 12 24
e 12 27
e 12 74
e 12 86
e 12 87
e 13 16
e 13 19
e 13 26
e 13 35
e 13 36
e 13 39
e 13 49
e 13 65
e 13 80
e 13 99
e 13 122
e 13 127
e 13 132
e 13 134
e 14 19
e 14 45
e 14 68
e 14 90
e 14 125
e 14 135
e 15 16
e 15 18
e 15 20
e 15 21
e 15 24
e 15 25
e 15 27
e 15 28
e 15 29
e 15 30
e 15 32
e 15 35
e 15 37
e 15 38
e 15 40
e 15 42
e 15 49
e 15 52
e 15 54
e 15 56
e 15 58
e 15 62
e 15 67
e 15 71
e 15 79
e 15 89
e 15 95
e 15 97
e 15 112
e 15 122
e 15 123
e 15 125
e 16 17
e 16 22
e 16 26
e 16 32
e 16 40
e 16 50
e 16 54
e 16 57
e 16 61
e 16 72
e 16 78
e 16 95
e 16 106
e 16 111
e 16 113
e 16 120
e 16 121
e 17 39
e 17 41
e 17 47
e 17 60
e 17 87
e 17 102
e 17 111
e 17 113
e 18 21
e 18 42
e 18 66
e 18 68
e 18 110
e 18 117
e 19 24
e 19 43
e 19 44
e 19 60
e 19 64
e 19 68
e 19 73
e 19 92
e 19 94
e 19 98
e 19 109
e 19 118
e 19 119
e 19 121
e 19 137
e 19 138
e 20 25
e 20 50
e 20 73
e 20 113
e 20 137
e 21 25
e 21 45
e 21 48
e 21 51
e 21 117
e 21 124
e 22 23
e 22 37
e 22 63
e 22 92
e 22 135
e 23 28
e 23 62
e 23 76
e 23 90
e 24 34
e 24 45
e 24 136
e 25 33
e 25 37
e 25 44
e 25 87
e 26 68
e 26 72
e 26 80
e 26 122
e 27 31
e 27 41
e 27 71
e 27 98
e 27 100
e 27 131
e 28 34
e 28 40
e 28 46
e 28 74
e 28 96
e 28 120
e 29 63
e 29 109
e 29 128
e 29 132
e 30 34
e 30 57
e 30 85
e 30 90
e 30 115
e 30 116
e 30 131
e 32 36
e 32 51
e 32 79
e 32 81
e 32 105
e 32 133
e 33 42
e 33 69
e 33 82
e 33 99
e 34 42
e 34 88
e 34 106
e 35 53
e 35 64
e 35 70
e 35 79
e 35 84
e 35 121
e 35 133
e 36 38
e 36 41
e 36 64
e 36 93
e 36 94
e 37 62
e 37 70
e 39 47
e 39 55
e 39 72
e 39 78
e 39 80
e 39 93
e 40 56
e 40 59
e 40 126
e 41 73
e 41 78
e 41 120
e 42 47
e 42 89
e 42 99
e 42 106
e 42 126
e 42 135
e 43 46
e 43 66
e 43 81
e 43 95
e 43 99
e 43 129
e 44 72
e 44 84
e 44 108
e 44 127
e 44 138
e 45 49
e 45 56
e 45 86
e 45 92
e 45 94
e 45 120
e 45 132
e 46 131
e 47 67
e 47 118
e 48 89
e 48 101
e 48 111
e 49 126
e 50 54
e 50 77
e 50 82
e 50 103
e 50 130
e 51 69
e 51 77
e 51 85
e 51 112
e 51 129
e 52 53
e 52 63
e 52 102
e 53 75
e 53 101
e 53 104
e 53 113
e 53 114
e 53 115
e 53 116
e 55 66
e 55 97
e 55 102
e 56 58
e 56 59
e 56 101
e 56 114
e 56 121
e 56 136
e 57 128
e 59 81
e 59 83
e 60 88
e 61 64
e 61 76
e 61 93
e 61 104
e 61 107
e 63 74
e 63 84
e 63 100
e 64 81
e 65 88
e 66 97
e 66 106
e 66 119
e 66 136
e 67 69
e 68 136
e 69 91
e 69 98
e 69 101
e 69 105
e 70 111
e 70 131
e 71 91
e 71 114
e 71 124
e 72 103
e 72 112
e 73 83
e 73 138
e 74 77
e 74 79
e 74 108
e 74 139
e 75 103
e 75 122
e 76 96
e 76 114
e 76 129
e 77 115
e 77 137
e 79 130
e 81 92
e 81 103
e 81 130
e 81 139
e 82 98
e 84 96
e 85 107
e 85 109
e 88 110
e 89 100
e 91 96
e 91 107
e 95 119
e 100 102
e 101 118
e 106 108
e 107 115
e 107 134
e 107 139
e 108 124
e 109 125
e 116 139
e 119 138
